c FILE: i080-343

c SOURCE: From steinlib

c DESCRIPTION: Steinlib instance with 80 nodes and 632 edges.

p edge 80 632
e 1 5
e 1 6
e 1 8
e 1 9
e 1 10
e 1 14
e 1 15
e 1 26
e 1 27
e 1 31
e 1 32
e 1 33
e 1 42
e 1 47
e 1 49
e 1 51
e 1 54
e 1 55
e 1 57
e 1 59
e 1 62
e 1 65
e 1 66
e 1 70
e 1 72
e 1 75
e 1 77
e 1 80
e 2 3
e 2 11
e 2 18
e 2 19
e 2 27
e 2 32
e 2 34
e 2 35
e 2 39
e 2 41
e 2 45
e 2 49
e 2 51
e 2 56
e 2 60
e 2 61
e 2 76
e 2 79
e 3 6
e 3 10
e 3 19
e 3 36
e 3 41
e 3 48
e 3 57
e 3 59
e 3 63
e 3 72
e 3 73
e 3 75
e 4 16
e 4 22
e 4 23
e 4 24
e 4 40
e 4 42
e 4 44
e 4 53
e 4 56
e 4 57
e 4 60
e 4 61
e 4 63
e 4 69
e 4 72
e 4 74
e 4 80
e 5 7
e 5 10
e 5 18
e 5 20
e 5 25
e 5 30
e 5 31
e 5 37
e 5 47
e 5 48
e 5 55
e 5 60
e 5 62
e 5 66
e 5 74
e 5 76
e 6 9
e 6 22
e 6 23
e 6 27
e 6 28
e 6 32
e 6 41
e 6 43
e 6 45
e 6 46
e 6 57
e 6 76
e 6 77
e 6 80
e 7 10
e 7 26
e 7 27
e 7 30
e 7 34
e 7 48
e 7 50
e 7 55
e 7 57
e 7 58
e 7 60
e 7 66
e 7 71
e 7 76
e 7 78
e 7 80
e 8 12
e 8 13
e 8 14
e 8 18
e 8 19
e 8 20
e 8 24
e 8 33
e 8 35
e 8 41
e 8 44
e 8 46
e 8 50
e 8 56
e 8 59
e 8 61
e 8 70
e 8 74
e 8 75
e 8 79
e 9 10
e 9 13
e 9 20
e 9 24
e 9 30
e 9 31
e 9 36
e 9 41
e 9 43
e 9 51
e 9 63
e 9 78
e 9 79
e 10 13
e 10 16
e 10 23
e 10 30
e 10 44
e 10 55
e 10 80
e 11 12
e 11 22
e 11 40
e 11 41
e 11 46
e 11 52
e 11 54
e 11 62
e 11 68
e 11 71
e 11 79
e 12 15
e 12 17
e 12 21
e 12 23
e 12 24
e 12 54
e 12 60
e 12 62
e 12 77
e 13 14
e 13 17
e 13 18
e 13 23
e 13 27
e 13 39
e 13 40
e 13 47
e 13 53
e 13 54
e 13 58
e 13 60
e 13 62
e 13 66
e 13 69
e 14 20
e 14 27
e 14 31
e 14 32
e 14 44
e 14 46
e 14 55
e 14 57
e 14 61
e 14 80
e 15 20
e 15 30
e 15 35
e 15 37
e 15 41
e 15 43
e 15 46
e 15 47
e 15 53
e 15 54
e 15 64
e 15 70
e 15 73
e 16 22
e 16 30
e 16 38
e 16 47
e 16 48
e 16 60
e 16 64
e 16 65
e 16 66
e 16 73
e 16 74
e 16 77
e 17 20
e 17 23
e 17 29
e 17 44
e 17 46
e 17 55
e 17 56
e 17 60
e 17 63
e 17 69
e 17 71
e 17 75
e 17 77
e 17 78
e 17 79
e 18 25
e 18 26
e 18 29
e 18 51
e 18 62
e 18 63
e 18 64
e 18 72
e 18 77
e 19 21
e 19 22
e 19 23
e 19 24
e 19 26
e 19 28
e 19 29
e 19 30
e 19 36
e 19 45
e 19 46
e 19 47
e 19 52
e 19 54
e 19 57
e 19 62
e 19 68
e 19 70
e 19 71
e 19 73
e 19 77
e 20 31
e 20 42
e 20 49
e 20 56
e 20 59
e 20 63
e 20 69
e 20 70
e 20 74
e 20 75
e 20 79
e 21 22
e 21 34
e 21 37
e 21 42
e 21 44
e 21 47
e 21 48
e 21 52
e 21 55
e 21 61
e 21 73
e 21 80
e 22 25
e 22 31
e 22 32
e 22 44
e 22 46
e 22 53
e 22 55
e 22 74
e 23 26
e 23 35
e 23 46
e 23 58
e 23 60
e 23 66
e 23 75
e 23 78
e 23 79
e 23 80
e 24 37
e 24 41
e 24 43
e 24 45
e 24 50
e 24 52
e 24 54
e 24 62
e 24 66
e 24 72
e 24 73
e 24 75
e 24 80
e 25 34
e 25 36
e 25 40
e 25 41
e 25 42
e 25 52
e 25 54
e 25 59
e 25 67
e 25 68
e 25 70
e 25 72
e 25 76
e 25 78
e 26 34
e 26 37
e 26 38
e 26 42
e 26 45
e 26 49
e 26 57
e 26 62
e 26 65
e 26 66
e 26 73
e 26 77
e 27 33
e 27 35
e 27 38
e 27 41
e 27 48
e 27 49
e 27 50
e 27 55
e 27 57
e 27 59
e 27 62
e 27 67
e 27 70
e 27 74
e 27 79
e 28 42
e 28 44
e 28 45
e 28 48
e 28 49
e 28 50
e 28 59
e 28 64
e 28 65
e 28 71
e 28 73
e 28 77
e 29 36
e 29 38
e 29 43
e 29 46
e 29 49
e 29 50
e 29 52
e 29 55
e 29 56
e 29 64
e 29 68
e 29 80
e 30 32
e 30 33
e 30 34
e 30 41
e 30 47
e 30 49
e 30 50
e 30 58
e 30 62
e 30 68
e 30 71
e 30 72
e 30 73
e 30 80
e 31 33
e 31 39
e 31 43
e 31 54
e 31 57
e 31 59
e 31 76
e 31 80
e 32 35
e 32 38
e 32 42
e 32 44
e 32 51
e 32 52
e 32 65
e 32 67
e 32 68
e 32 74
e 32 79
e 33 37
e 33 38
e 33 39
e 33 41
e 33 45
e 33 46
e 33 54
e 33 56
e 33 58
e 33 59
e 33 64
e 33 72
e 33 77
e 33 79
e 34 42
e 34 45
e 34 50
e 34 57
e 34 58
e 34 72
e 34 75
e 35 42
e 35 43
e 35 46
e 35 50
e 35 58
e 35 68
e 35 69
e 35 75
e 36 42
e 36 45
e 36 49
e 36 57
e 36 60
e 36 65
e 36 75
e 36 77
e 36 80
e 37 38
e 37 41
e 37 42
e 37 45
e 37 51
e 37 52
e 37 55
e 37 62
e 37 66
e 38 44
e 38 49
e 38 55
e 38 80
e 39 48
e 39 61
e 39 72
e 39 77
e 40 45
e 40 46
e 40 47
e 40 49
e 40 51
e 40 65
e 40 67
e 40 69
e 40 76
e 41 44
e 41 51
e 41 53
e 41 55
e 41 59
e 41 61
e 41 64
e 41 65
e 41 70
e 41 72
e 42 47
e 42 51
e 42 53
e 42 56
e 42 65
e 42 67
e 42 68
e 42 69
e 42 70
e 42 80
e 43 45
e 43 48
e 43 68
e 43 70
e 43 76
e 43 78
e 43 79
e 43 80
e 44 52
e 44 55
e 44 61
e 45 50
e 45 54
e 45 56
e 45 67
e 45 69
e 45 75
e 45 78
e 45 80
e 46 51
e 46 55
e 46 67
e 46 68
e 46 72
e 47 52
e 47 58
e 47 62
e 47 67
e 47 80
e 48 49
e 48 57
e 48 78
e 48 79
e 49 60
e 49 61
e 49 75
e 50 57
e 50 61
e 50 62
e 50 79
e 51 55
e 51 60
e 51 61
e 51 64
e 51 66
e 51 67
e 51 71
e 51 72
e 51 77
e 51 78
e 52 56
e 52 57
e 52 66
e 52 68
e 52 71
e 52 75
e 52 76
e 52 78
e 53 69
e 53 78
e 54 56
e 54 57
e 54 68
e 54 69
e 54 73
e 55 60
e 55 61
e 55 63
e 55 65
e 55 68
e 55 75
e 55 77
e 55 79
e 56 62
e 56 64
e 56 65
e 56 69
e 56 77
e 57 78
e 58 67
e 59 62
e 59 70
e 59 74
e 59 79
e 60 76
e 61 62
e 61 67
e 61 77
e 61 78
e 62 63
e 62 64
e 62 65
e 62 68
e 62 75
e 63 66
e 63 70
e 63 73
e 64 71
e 64 74
e 64 76
e 65 72
e 65 73
e 65 74
e 66 69
e 66 70
e 66 72
e 66 74
e 66 78
e 67 69
e 67 80
e 68 77
e 68 78
e 68 80
e 69 72
e 69 73
e 70 76
e 70 80
e 71 73
e 71 80
e 73 77
